
n_res = 4;
rcap = [34, 26, 79, 79];
rtype = [1, 1, 2, 2];
n_tasks = 50;
modes =  [{1, 2, 3}, {4, 5, 6}, {7, 8, 9}, {10, 11, 12}, {13, 14, 15}, {16, 17, 18}, {19, 20, 21}, {22, 23, 24}, {25, 26, 27}, {28, 29, 30}, {31, 32, 33}, {34, 35, 36}, {37, 38, 39}, {40, 41, 42}, {43, 44, 45}, {46, 47, 48}, {49, 50, 51}, {52, 53, 54}, {55, 56, 57}, {58, 59, 60}, {61, 62, 63}, {64, 65, 66}, {67, 68, 69}, {70, 71, 72}, {73, 74, 75}, {76, 77, 78}, {79, 80, 81}, {82, 83, 84}, {85, 86, 87}, {88, 89, 90}, {91, 92, 93}, {94, 95, 96}, {97, 98, 99}, {100, 101, 102}, {103, 104, 105}, {106, 107, 108}, {109, 110, 111}, {112, 113, 114}, {115, 116, 117}, {118, 119, 120}, {121, 122, 123}, {124, 125, 126}, {127, 128, 129}, {130, 131, 132}, {133, 134, 135}, {136, 137, 138}, {139, 140, 141}, {142, 143, 144}, {145, 146, 147}, {148, 149, 150}];
succ =  [{50, 47, 46, 40, 37, 27, 26, 25, 18, 15}, {50, 47, 46, 45, 44, 41, 40, 38, 37, 27, 25, 21}, {49, 46, 45, 42, 41, 40, 39, 36, 33, 30, 25, 24, 23}, {49, 45, 40, 33, 28, 21, 16}, {46, 42, 40, 30, 29, 26, 24, 23, 17}, {48, 45, 44, 31, 30, 17, 16}, {49, 48, 46, 43, 40, 36, 33, 31, 30, 16}, {50, 47, 46, 44, 43, 42, 41, 40, 39, 36, 35, 34, 33, 32, 31, 30}, {47, 46, 45, 44, 42, 41, 40, 38, 35, 34, 33, 32, 31, 30}, {45, 44, 38, 37, 36, 30, 26, 25}, {45, 44, 43, 42, 39, 37, 36, 35, 34, 33, 31, 30}, {50, 48, 46, 44, 41, 40, 38, 37, 35, 34, 33, 30}, {48, 47, 45, 44, 43, 40, 38, 30, 26}, {49, 48, 46, 41, 40, 39, 36, 34, 26}, {49, 44, 43, 42, 41, 36, 35, 33, 31, 30}, {47, 41, 38, 37, 25}, {43, 39, 38, 36, 34, 33}, {48, 45, 39, 34, 32, 30}, {49, 38, 37, 32, 31, 30}, {37, 30, 25}, {42, 39, 36, 31, 30}, {40, 36, 33, 32, 31}, {43, 37, 35, 31}, {38, 37, 34, 31}, {35, 34, 32}, {33, 32, 31}, {33, 32, 30}, {42, 30}, {39, 36}, {}, {}, {}, {}, {}, {}, {}, {}, {}, {}, {}, {}, {}, {}, {}, {}, {}, {}, {}, {}, {}];
n_opt = 150;
dur = [3, 8, 9, 3, 8, 9, 9, 10, 10, 4, 5, 9, 2, 3, 4, 5, 7, 10, 6, 8, 10, 3, 9, 10, 2, 4, 9, 1, 5, 6, 3, 9, 10, 1, 1, 4, 6, 7, 8, 6, 7, 8, 5, 8, 10, 4, 6, 7, 6, 7, 10, 4, 8, 10, 1, 5, 10, 1, 5, 10, 3, 6, 9, 5, 5, 7, 1, 6, 7, 2, 2, 5, 1, 1, 10, 2, 3, 9, 3, 4, 9, 1, 3, 6, 4, 8, 9, 2, 6, 10, 6, 7, 8, 1, 2, 2, 2, 2, 8, 3, 4, 9, 3, 5, 7, 2, 5, 7, 3, 5, 6, 3, 4, 10, 2, 5, 6, 2, 6, 8, 1, 6, 10, 2, 4, 9, 5, 9, 10, 5, 7, 10, 3, 5, 10, 2, 4, 5, 1, 2, 8, 2, 3, 5, 6, 7, 9, 3, 6, 7];
rreq = [|0, 4, 0, 5, 0, 0, 8, 0, 0, 7, 0, 0, 0, 4, 0, 6, 0, 5, 7, 0, 0, 0, 2, 0, 4, 0, 0, 0, 0, 7, 9, 9, 9, 8, 7, 7, 8, 8, 8, 0, 0, 0, 9, 0, 4, 0, 1, 0, 7, 7, 0, 5, 0, 3, 5, 0, 0, 6, 5, 0, 0, 6, 6, 0, 0, 0, 7, 5, 4, 4, 3, 3, 0, 4, 4, 0, 1, 1, 0, 0, 0, 7, 0, 1, 0, 4, 4, 0, 0, 3, 8, 6, 2, 9, 0, 9, 0, 0, 0, 4, 4, 4, 0, 6, 3, 8, 6, 0, 7, 0, 0, 5, 4, 0, 7, 4, 1, 5, 4, 0, 8, 0, 4, 9, 8, 7, 7, 5, 0, 7, 0, 2, 8, 6, 0, 0, 6, 0, 0, 0, 4, 0, 9, 9, 0, 0, 1, 3, 2, 0
 |8, 0, 7, 0, 4, 2, 0, 7, 7, 0, 2, 2, 10, 0, 5, 0, 7, 0, 0, 4, 4, 3, 0, 3, 0, 6, 2, 8, 8, 0, 0, 0, 0, 0, 0, 0, 0, 0, 0, 3, 2, 1, 0, 1, 0, 3, 0, 3, 0, 0, 1, 0, 7, 0, 0, 3, 3, 0, 0, 4, 9, 0, 0, 5, 5, 5, 0, 0, 0, 0, 0, 0, 10, 0, 0, 8, 0, 0, 7, 7, 7, 0, 6, 0, 5, 0, 0, 7, 6, 0, 0, 0, 0, 0, 4, 0, 10, 9, 9, 0, 0, 0, 7, 0, 0, 0, 0, 4, 0, 1, 1, 0, 0, 1, 0, 0, 0, 0, 0, 3, 0, 2, 0, 0, 0, 0, 0, 0, 5, 0, 8, 0, 0, 0, 4, 8, 0, 7, 5, 5, 0, 7, 0, 0, 6, 4, 0, 0, 0, 1
 |10, 0, 0, 0, 2, 1, 10, 0, 10, 5, 0, 0, 0, 0, 3, 10, 5, 3, 10, 8, 0, 8, 0, 0, 0, 0, 3, 0, 2, 0, 0, 0, 0, 0, 5, 2, 0, 0, 0, 5, 3, 3, 7, 0, 0, 0, 5, 0, 0, 0, 2, 0, 0, 7, 3, 0, 1, 0, 0, 0, 0, 0, 3, 8, 0, 1, 0, 9, 0, 0, 5, 2, 8, 6, 5, 3, 2, 0, 9, 5, 0, 5, 0, 0, 6, 3, 0, 0, 1, 0, 0, 0, 0, 0, 5, 0, 0, 1, 0, 3, 2, 1, 6, 5, 3, 0, 3, 2, 0, 3, 0, 9, 8, 7, 9, 7, 5, 7, 0, 4, 0, 0, 0, 0, 2, 0, 0, 7, 0, 0, 0, 0, 0, 3, 0, 0, 0, 0, 0, 3, 0, 6, 6, 5, 0, 0, 0, 0, 1, 0
 |0, 3, 3, 7, 0, 0, 0, 2, 0, 0, 5, 4, 2, 2, 0, 0, 0, 0, 0, 0, 2, 0, 6, 2, 7, 6, 0, 7, 0, 5, 10, 6, 5, 10, 0, 0, 5, 4, 3, 0, 0, 0, 0, 5, 5, 5, 0, 2, 7, 6, 0, 6, 4, 0, 0, 7, 0, 3, 3, 3, 6, 5, 0, 0, 3, 0, 8, 0, 1, 9, 0, 0, 0, 0, 0, 0, 0, 1, 0, 0, 6, 0, 7, 6, 0, 0, 3, 10, 0, 4, 5, 5, 2, 8, 0, 6, 5, 0, 1, 0, 0, 0, 0, 0, 0, 8, 0, 0, 4, 0, 2, 0, 0, 0, 0, 0, 0, 0, 5, 0, 5, 5, 1, 9, 0, 5, 2, 0, 1, 5, 4, 4, 5, 0, 2, 4, 2, 2, 7, 0, 1, 0, 0, 0, 8, 8, 7, 10, 0, 9|];